Name:		mgval_0.45_5A
Optimal value:	-1
#Vehicles:	3
Capacity:	220
Depot Node:	1
#Nodes:		34
#Edges:		22
#Arcs:		74
#Required N:	26
#Required E:	12
#Required A:	40

ReN.	DEMAND	S. COST
N2	19	19
N3	14	14
N4	7	7
N6	30	30
N7	3	3
N8	5	5
N10	15	15
N11	26	26
N13	10	10
N14	3	3
N15	7	7
N16	16	16
N17	18	18
N18	7	7
N19	8	8
N21	6	6
N22	15	15
N25	12	12
N26	8	8
N27	17	17
N28	13	13
N29	5	5
N30	8	8
N31	13	13
N32	5	5
N33	7	7

ReE.	FROM N.	TO N.	T. COST	DEMAND	S. COST
E11	16	17	5	8	8
E12	27	28	10	13	13
E13	28	33	3	8	8
E14	20	21	2	3	3
E15	9	10	3	7	7
E16	4	5	9	12	12
E17	21	22	5	8	8
E18	13	14	4	8	8
E19	8	9	7	8	8
E20	4	11	10	15	15
E21	1	7	8	9	9
E22	19	20	6	12	12

EDGE	FROM N.	TO N.	T. COST
NrE1	11	24	15
NrE2	16	23	9
NrE3	10	11	8
NrE4	2	3	5
NrE5	8	14	2
NrE6	28	34	2
NrE7	6	7	9
NrE8	6	18	9
NrE9	30	31	6
NrE10	27	32	5

ReA.	FROM N.	TO N.	T. COST	DEMAND	S. COST
A35	15	21	4	6	6
A36	23	22	1	1	1
A37	2	8	8	6	6
A38	16	15	5	9	9
A39	12	18	5	5	5
A40	18	29	9	15	15
A41	30	25	5	6	6
A42	9	3	6	4	4
A43	19	25	5	3	3
A44	19	18	7	7	7
A45	6	1	2	3	3
A46	20	14	3	5	5
A47	26	20	3	4	4
A48	34	24	10	8	8
A49	12	6	7	11	11
A50	28	23	5	3	3
A51	2	1	10	6	6
A52	8	2	8	7	7
A53	26	31	9	6	6
A54	34	33	1	2	2
A55	27	26	4	3	3
A56	23	28	5	2	2
A57	16	10	2	4	4
A58	30	29	4	7	7
A59	24	34	10	8	8
A60	24	23	5	4	4
A61	26	27	4	2	2
A62	25	26	9	8	8
A63	14	20	3	5	5
A64	22	28	4	4	4
A65	9	15	5	4	4
A66	13	2	9	8	8
A67	5	11	4	3	3
A68	1	6	2	2	2
A69	20	26	3	3	3
A70	22	23	1	1	1
A71	19	12	4	9	9
A72	18	12	5	6	6
A73	23	24	5	3	3
A74	10	16	2	3	3

ARC	FROM N.	TO N.	T. COST
NrA1	22	15	9
NrA2	33	32	5
NrA3	25	30	5
NrA4	11	17	7
NrA5	1	2	10
NrA6	2	13	9
NrA7	15	9	5
NrA8	18	19	7
NrA9	21	15	4
NrA10	28	22	4
NrA11	27	21	7
NrA12	29	25	7
NrA13	17	24	9
NrA14	13	7	5
NrA15	4	3	3
NrA16	25	29	7
NrA17	17	11	7
NrA18	13	12	2
NrA19	32	33	5
NrA20	3	4	3
NrA21	14	15	1
NrA22	26	25	9
NrA23	4	10	4
NrA24	10	4	4
NrA25	33	34	1
NrA26	15	14	1
NrA27	3	9	6
NrA28	3	10	2
NrA29	31	32	3
NrA30	11	5	4
NrA31	25	19	5
NrA32	7	13	5
NrA33	31	26	9
NrA34	19	13	6
